1 1000 6
2 909 6
3 848 6
5 842 5
11 787 6
50 783 5
79 770 5



1 1043 6
2 917 6
3 902 6
5 873 6
7 855 6
8 816 6
10 805 5
21 801 5
30 784 5



1 1062 6
2 922 5
3 909 5
4 897 6
5 881 5
6 873 5
11 866 6
14 853 5
17 843 5
20 818 5
23 804 5
47 800 5
55 792 5
87 771 5
767 759 5



1 1011 5
2 893 5
3 835 6
5 828 6
7 822 5
43 787 6
268 785 5
392 770 5



1 1051 5
2 866 5
10 848 5
13 836 6
14 831 5
27 811 6
40 808 5
64 782 5
157 773 5



